; Property from "Productive Use of Failure in Inductive Proof",
; Andrew Ireland and Alan Bundy, JAR 1996
(declare-datatypes (a)
  ((list (nil) (cons (head a) (tail (list a))))))
(declare-datatypes () ((Nat (Z) (S (p Nat)))))
(define-fun-rec
  (par (a)
    (drop
       ((x Nat) (y (list a))) (list a)
       (match x
         (case Z y)
         (case (S z)
           (match y
             (case nil (as nil (list a)))
             (case (cons x2 x3) (drop z x3))))))))
(assert-not
  (par (a)
    (forall ((x Nat) (y Nat) (z (list a)))
      (= (drop x (drop y z)) (drop y (drop x z))))))
(check-sat)
